4 
5  09 25 40 55 
6  10 22 28 34 39 43 49 54 59 
7  04 09 14 19 24 29 34 39 44 49 54 59 
8  04 09 14 19 24 29 34 39 44 49 54 59 
9  04 09 14 19 24 30 35 40 47 55 
10  02 10 17 25 33 40 48 55 
11  03 10 18 25 33 40 48 55 
12  03 10 18 25 33 40 48 55 
13  03 10 20 27 35 42 50 57 
14  05 12 20 27 35 42 48 52 57 
15  02 07 12 17 22 27 32 37 42 47 52 57 
16  02 07 12 17 22 27 32 37 42 47 52 57 
17  02 07 12 17 22 27 32 37 42 47 52 57 
18  02 07 12 17 22 29 36 44 50 56 
19  01 07 12 15 20 27 34 42 50 57 
20  05 12 19 27 35 47 
21  02 17 32 47 
22  02 17 32 47 
23  02 17 31 
0 
